\ LP format - for model browsing. Use MPS format to capture full model detail.
Maximize
  47 z1 + 22.42857142857143 z2 + 41 z3 + 13.14285714285715 z4
   + 25.14285714285714 z5 + 22.42857142857143 z6 + 17.85714285714285 z7
   + 9.857142857142861 z8 + 18 z9 + 32.28571428571431 z10
   + 12.57142857142857 z11 + 44.28571428571431 z12 + 19.14285714285714 z13
   + 32 z14 + 41 z15 + 39 z16 + 36 z17 + 41 z18 + 47.57142857142858 z19
   + 39.14285714285715 z20
Subject To
 constraint1: 47 z1 + 24 z2 + 41 z3 + 14 z4 + 26 z5 + 23 z6 + 19 z7 + 11 z8
   + 18 z9 + 33 z10 + 13 z11 + 46 z12 + 20 z13 + 32 z14 + 41 z15 + 39 z16
   + 36 z17 + 41 z18 + 48 z19 + 40 z20 <= 200
 constraints2_7_&_16: z7 - z16 = 0
 constraints2_14_&_17: z14 - z17 = 0
 constraints2_17_&_20: z17 - z20 = 0
 constraints3_1_|_3: z1 + z3 <= 1
 constraints3_1_|_9: z1 + z9 <= 1
 constraints3_1_|_14: z1 + z14 <= 1
 constraints3_1_|_20: z1 + z20 <= 1
 constraints3_3_|_7: z3 + z7 <= 1
 constraints3_6_|_19: z6 + z19 <= 1
 constraints3_7_|_14: z7 + z14 <= 1
 constraints3_9_|_14: z9 + z14 <= 1
 constraints3_10_|_19: z10 + z19 <= 1
 constraints3_12_|_14: z12 + z14 <= 1
 constraints3_12_|_15: z12 + z15 <= 1
 constraints3_14_|_18: z14 + z18 <= 1
 constraints3_15_|_18: z15 + z18 <= 1
 constraints3_18_|_20: z18 + z20 <= 1
Bounds
Binaries
 z1 z2 z3 z4 z5 z6 z7 z8 z9 z10 z11 z12 z13 z14 z15 z16 z17 z18 z19 z20
End
